n=8;
hearts=6;
clubs=32;
spades=16;
diamonds=29;
blocked=13;
m=array2d(1..n, 1..n,[
	_,_,_,_,_,_,_,5,
	3,5,4,_,_,5,_,_,
	_,_,_,4,5,5,1,_,
	_,5,_,_,5,4,3,_,
	3,_,_,_,_,_,5,_,
	_,_,5,_,5,5,_,_,
	_,_,1,3,5,_,_,_,
	_,4,_,4,_,5,2,_
]);
